Route #1: 50 74 43 78 52 54 67 68 71 34 37
Route #2: 14 4 75 30 32 61 40
Route #3: 41 22 15 72 11 8 2
Route #4: 46 23 10 55 73 77 51
Route #5: 63 24 35 25 7 6 13 45
Route #6: 38 3 80 29 53 12
Route #7: 47 42 26 16 56 48 21 28 18 65
Route #8: 76 58 62 17 44 69 79 60 31
Route #9: 64 49 19 9 27 20 57 70 66 36
Route #10: 59 33 5 39
cost 2145
